
--- Job HW 6 HayGrain.gms Start 10/14/24 13:13:42 47.6.0 c2de9d6d WEX-WEI x86 64bit/MS Windows
--- Applying:
    C:\GAMS\47\gmsprmNT.txt
--- GAMS Parameters defined
    Input "C:\Users\adrie\Dropbox\CEE 3410\CEE-6410-McKell\HW 6 HayGrain.gms"
    PageSize 0
    ScrDir "C:\Users\adrie\Dropbox\CEE 3410\CEE-6410-McKell\225a\"
    SysDir C:\GAMS\47\
    LogOption 3
    ErrMsg 1
    ErrorLog 99
    IDE 1
    LstTitleLeftAligned 1
Licensee: CEE 6410 Water Resources Systems Analysis      G240923|0002AO-GEN
          Utah State University, Utah Water Research Laboratory     DCE3763
          C:\Users\adrie\OneDrive\Documents\GAMS\gamslice.txt
          License Admin: David Rosenberg, david.rosenberg@usu.edu          
          Other time limited license
          The evaluation period of the license will expire on Dec 22, 2024
Processor information: 1 socket(s), 4 core(s), and 8 thread(s) available
GAMS 47.6.0   Copyright (C) 1987-2024 GAMS Development. All rights reserved
--- Starting compilation
--- HW 6 HayGrain.gms(99) 3 Mb
--- Starting execution: elapsed 0:00:00.016
--- HW 6 HayGrain.gms(77) 4 Mb
--- Generating LP model PLANT_PRIMAL
--- HW 6 HayGrain.gms(85) 4 Mb
---   5 rows  3 columns  10 non-zeroes
--- Range statistics (absolute non-zero finite values)
--- RHS       [min, max] : [ 6.000E+03, 1.800E+04] - Zero values observed as well
--- Bound     [min, max] : [        NA,        NA] - Zero values observed as well
--- Matrix    [min, max] : [ 1.000E+00, 1.200E+02]
--- Executing CPLEX (Solvelink=2): elapsed 0:00:00.031

IBM ILOG CPLEX   47.6.0 c2de9d6d Sep 12, 2024          WEI x86 64bit/MS Window

*** This solver runs with a community license.

Reading parameter(s) from "C:\Users\adrie\Dropbox\CEE 3410\CEE-6410-McKell\cplex.opt"
>>  objrng all
>>  rhsrng all
Finished reading from "C:\Users\adrie\Dropbox\CEE 3410\CEE-6410-McKell\cplex.opt"

--- GMO setup time: 0.00s
--- GMO memory 0.50 Mb (peak 0.50 Mb)
--- Dictionary memory 0.00 Mb
--- Cplex 22.1.1.0 link memory 0.00 Mb (peak 0.00 Mb)
--- Starting Cplex

Version identifier: 22.1.1.0 | 2022-11-27 | 9160aff4d
CPXPARAM_Advance                                 0
CPXPARAM_Simplex_Display                         2
CPXPARAM_MIP_Display                             4
CPXPARAM_MIP_Pool_Capacity                       0
CPXPARAM_MIP_Tolerances_AbsMIPGap                0
Tried aggregator 1 time.
LP Presolve eliminated 1 rows and 1 columns.
Reduced LP has 3 rows, 2 columns, and 6 nonzeros.
Presolve time = 0.00 sec. (0.00 ticks)

Iteration      Dual Objective            In Variable           Out Variable
     1  I            0.000000               X(Grain)RES_CONS_PRIMAL(W slack
     2         1213333.333333                 X(Hay)RES_CONS_PRIMAL(W slack
     3         1160000.000000RES_CONS_PRIMAL(W slackRES_CONS_PRIMAL(L slack

--- LP status (1): optimal.
--- Cplex Time: 0.00sec (det. 0.01 ticks)

--- Start ranging / sensitivity analysis...
--- Right-hand-side ranging...

EQUATION NAME                            LOWER           CURRENT             UPPER
-------------                            -----           -------             -----
PROFIT_PRIMAL                             -INF                NA              +INF   
RES_CONS_PRIMAL(WaterJune)               12000             14000              +INF   
RES_CONS_PRIMAL(WaterJuly)               16000             18000             20000   
RES_CONS_PRIMAL(WaterAug)                 2000              6000              +INF   
RES_CONS_PRIMAL(Land)                     9000             10000           10666.7   

--- Objective ranging...

VARIABLE NAME                            LOWER           CURRENT             UPPER
-------------                            -----           -------             -----
X(Hay)                                      60               100               120   
X(Grain)                                   100               120               200   
VPROFIT                                   -INF                NA              +INF   


Optimal solution found
Objective:      1160000.000000

--- Reading solution for model PLANT_PRIMAL
--- Executing after solve: elapsed 0:00:00.113
--- Generating LP model PLANT_DUAL
--- HW 6 HayGrain.gms(89) 4 Mb
---   3 rows  5 columns  12 non-zeroes
--- Range statistics (absolute non-zero finite values)
--- RHS       [min, max] : [ 1.000E+02, 1.200E+02] - Zero values observed as well
--- Bound     [min, max] : [        NA,        NA] - Zero values observed as well
--- Matrix    [min, max] : [ 1.000E+00, 1.800E+04]
--- Executing CPLEX (Solvelink=2): elapsed 0:00:00.117

IBM ILOG CPLEX   47.6.0 c2de9d6d Sep 12, 2024          WEI x86 64bit/MS Window

*** This solver runs with a community license.
--- GMO setup time: 0.00s
--- GMO memory 0.50 Mb (peak 0.50 Mb)
--- Dictionary memory 0.00 Mb
--- Cplex 22.1.1.0 link memory 0.00 Mb (peak 0.00 Mb)
--- Starting Cplex

Version identifier: 22.1.1.0 | 2022-11-27 | 9160aff4d
CPXPARAM_Advance                                 0
CPXPARAM_Simplex_Display                         2
CPXPARAM_MIP_Display                             4
CPXPARAM_MIP_Pool_Capacity                       0
CPXPARAM_MIP_Tolerances_AbsMIPGap                0
Tried aggregator 1 time.
LP Presolve eliminated 0 rows and 1 columns.
Reduced LP has 2 rows, 4 columns, and 7 nonzeros.
Presolve time = 0.00 sec. (0.00 ticks)

Iteration      Dual Objective            In Variable           Out Variable
     1         1080000.000000           Y(WaterJuly)RES_CONS_DUAL(Gra slack
     2         1160000.000000                Y(Land)RES_CONS_DUAL(Hay slack

--- LP status (1): optimal.
--- Cplex Time: 0.00sec (det. 0.00 ticks)


Optimal solution found
Objective:      1160000.000000

--- Reading solution for model PLANT_DUAL
--- Executing after solve: elapsed 0:00:00.201
--- HW 6 HayGrain.gms(95) 4 Mb
--- GDX File (execute_unload) C:\Users\adrie\Dropbox\CEE 3410\CEE-6410-McKell\HW 6 HayGrain.gdx
--- HW 6 HayGrain.gms(97) 4 Mb
GDX2XLS          47.6.0 c2de9d6d Sep 12, 2024          WEI x86 64bit/MS Window
gdx2xls error: Input file not found: C:\Users\adrie\Dropbox\CEE 3410\CEE-6410-McKell\HW6HayGrain.gdx
*** Status: Normal completion
--- Job HW 6 HayGrain.gms Stop 10/14/24 13:13:43 elapsed 0:00:00.371
